Bin size: 100
Number of elements: 200
71
24
29
80
9
57
28
50
26
88
27
24
90
72
39
33
62
36
64
5
52
37
27
33
23
8
34
25
49
72
47
23
86
7
52
49
72
11
34
50
98
96
39
89
80
77
4
64
46
9
85
22
10
72
99
77
66
71
19
81
68
12
22
85
62
37
2
52
100
26
43
62
42
73
93
45
100
27
28
76
49
71
24
9
91
81
100
83
28
58
98
51
6
26
94
100
20
59
28
94
64
49
20
83
87
94
41
2
68
37
69
52
83
7
78
2
57
60
23
99
26
12
12
54
69
8
94
3
84
3
36
62
57
33
96
38
71
59
18
15
74
96
98
56
37
50
55
85
38
2
40
23
78
17
4
75
98
29
61
77
12
15
94
3
37
47
21
59
43
4
26
51
84
97
41
98
30
87
53
34
41
38
73
39
33
45
54
69
15
80
61
61
19
55
46
79
56
8
87
36